JulietBench/Juliet_Based_Patch_Bench/qemu/CWE-190-Integer-Overflow-or-Wraparound/CVE_2014_0143_e3737b820b45e54b059656dc3f914f895ac7a88b/cve2/Resultbochs_open_SnippetNEQ.smt2
; benchmark generated from python API
(set-info :status unknown)
(declare-fun R () (_ BitVec 32))
(declare-fun rdi () (_ BitVec 64))
(assert
 (let (($x45 (= (_ bv4294967274 32) R)))
 (let ((?x6 ((_ extract 31 0) rdi)))
 (let ((?x7 ((_ zero_extend 32) ?x6)))
 (let (($x11 (bvsgt (_ bv2147483648 64) ?x7)))
 (let (($x46 (and $x11 $x45)))
 (let (($x42 (= R ?x6)))
 (let (($x34 (bvsle (_ bv2147483648 64) ?x7)))
 (let (($x43 (and $x34 $x42)))
 (let (($x47 (or $x43 $x46)))
 (let (($x50 (not $x47)))
 (let (($x49 (and (distinct R ?x6) true)))
 (let (($x51 (and $x49 $x50)))
 (let (($x48 (and $x42 $x47)))
 (let (($x52 (or $x48 $x51)))
 (not $x52))))))))))))))))
(check-sat)
